40
2 0 14
2 1 17
3 2 6
4 0 19
4 1 19
4 2 6
4 3 8
5 0 17
5 2 15
5 3 14
5 4 19
6 0 2
6 2 9
6 3 17
6 5 20
7 0 3
7 1 11
7 4 8
7 6 19
8 0 16
8 2 1
8 3 10
8 6 8
8 7 14
9 0 8
9 1 7
9 2 4
9 6 4
9 7 7
9 8 2
10 1 20
10 3 7
10 4 20
10 6 3
10 7 5
10 8 16
10 9 8
11 0 12
11 2 14
11 3 12
11 4 3
11 6 2
11 8 16
11 9 16
11 10 16
12 0 20
12 2 5
12 3 7
12 4 1
12 5 11
12 6 14
12 10 6
12 11 17
13 0 7
13 1 8
13 2 10
13 3 10
13 4 20
13 7 10
13 8 3
13 10 18
14 0 8
14 1 3
14 3 12
14 5 3
14 6 7
14 7 18
14 8 6
14 9 20
14 11 5
14 13 6
15 1 16
15 6 2
15 7 14
15 9 2
15 10 17
15 11 3
15 12 13
15 13 8
15 14 2
16 1 5
16 2 14
16 3 11
16 5 13
16 12 5
16 13 3
16 14 18
16 15 13
17 0 5
17 1 11
17 2 4
17 3 15
17 4 3
17 5 4
17 6 8
17 7 9
17 8 11
17 10 14
17 11 3
17 14 4
17 15 11
18 0 2
18 2 15
18 3 4
18 4 20
18 5 1
18 7 4
18 8 17
18 9 20
18 10 16
18 11 18
18 12 11
18 13 19
18 14 13
18 17 8
19 0 8
19 1 16
19 2 8
19 3 14
19 4 14
19 7 1
19 8 6
19 9 4
19 10 12
19 11 17
19 13 13
19 14 1
19 17 16
19 18 19
20 0 6
20 1 1
20 3 17
20 5 5
20 6 2
20 7 1
20 8 6
20 9 2
20 10 7
20 11 13
20 12 16
20 13 5
20 15 15
20 17 15
20 18 14
20 19 14
21 1 4
21 2 18
21 3 10
21 5 5
21 8 20
21 9 1
21 10 2
21 12 16
21 13 1
21 14 18
21 15 18
21 16 10
21 17 12
21 18 10
21 19 9
21 20 5
22 0 11
22 1 5
22 2 8
22 3 12
22 4 15
22 7 15
22 8 15
22 9 7
22 11 6
22 13 11
22 14 5
22 16 10
22 17 10
22 20 9
22 21 16
23 1 8
23 2 13
23 4 8
23 5 18
23 6 1
23 8 6
23 9 1
23 10 18
23 11 8
23 12 12
23 14 14
23 19 18
23 20 12
23 21 9
23 22 2
24 1 17
24 3 5
24 4 13
24 5 15
24 6 13
24 7 12
24 10 17
24 11 7
24 12 19
24 13 17
24 14 14
24 15 17
24 19 18
24 20 16
24 21 3
24 22 14
24 23 17
25 1 13
25 2 6
25 3 11
25 4 7
25 5 19
25 6 16
25 7 13
25 8 3
25 11 20
25 12 7
25 13 14
25 14 16
25 15 13
25 16 16
25 17 15
25 18 12
25 19 20
25 20 13
25 21 20
25 22 4
25 23 18
25 24 6
26 1 2
26 2 17
26 3 9
26 5 16
26 6 6
26 7 1
26 8 11
26 9 10
26 10 20
26 11 2
26 12 3
26 13 9
26 17 8
26 20 2
26 21 17
26 22 13
26 23 18
26 24 15
26 25 1
27 1 16
27 2 2
27 3 20
27 4 13
27 5 15
27 7 12
27 8 8
27 11 8
27 12 19
27 14 16
27 15 19
27 16 16
27 17 17
27 18 13
27 19 3
27 20 9
27 21 7
27 23 11
27 24 14
27 26 17
28 0 13
28 2 2
28 3 2
28 4 13
28 5 16
28 9 10
28 10 14
28 11 6
28 12 5
28 14 6
28 15 5
28 17 2
28 18 19
28 19 18
28 20 8
28 21 6
28 22 2
28 23 12
28 24 15
28 25 10
28 26 2
29 0 20
29 1 16
29 2 10
29 3 16
29 4 8
29 5 7
29 6 12
29 9 19
29 11 4
29 12 11
29 13 3
29 14 14
29 16 14
29 17 9
29 18 5
29 19 17
29 21 14
29 23 15
29 25 1
29 27 15
29 28 13
30 0 10
30 2 16
30 6 5
30 7 14
30 8 8
30 10 10
30 13 14
30 14 2
30 15 20
30 17 13
30 19 2
30 20 17
30 21 3
30 23 18
30 24 17
30 25 4
30 26 3
30 27 14
30 28 3
30 29 11
31 1 1
31 2 13
31 3 16
31 4 11
31 6 12
31 7 11
31 8 7
31 10 5
31 11 10
31 12 14
31 13 1
31 14 19
31 15 7
31 17 5
31 21 6
31 22 13
31 23 20
31 24 8
31 27 14
31 28 10
31 29 9
31 30 13
32 1 18
32 2 5
32 4 7
32 5 16
32 6 17
32 7 19
32 9 15
32 12 7
32 13 10
32 14 16
32 15 11
32 16 9
32 17 12
32 19 11
32 21 20
32 23 12
32 24 19
32 25 14
32 26 8
32 27 6
32 28 19
32 29 14
32 30 17
32 31 17
33 1 8
33 3 18
33 4 16
33 7 1
33 10 11
33 11 20
33 12 17
33 13 20
33 14 12
33 15 6
33 16 14
33 18 2
33 19 20
33 20 17
33 21 9
33 22 1
33 23 19
33 24 18
33 25 5
33 28 8
33 29 3
33 30 10
33 31 19
34 1 7
34 3 9
34 4 4
34 5 18
34 8 2
34 9 5
34 10 10
34 11 1
34 12 20
34 13 5
34 14 18
34 15 5
34 17 4
34 18 18
34 19 16
34 20 13
34 21 1
34 22 18
34 23 1
34 25 12
34 26 3
34 29 11
34 30 9
34 31 15
34 32 8
35 1 18
35 5 2
35 6 14
35 9 20
35 10 19
35 11 8
35 12 2
35 14 11
35 15 19
35 16 9
35 18 10
35 20 8
35 25 4
35 26 5
35 27 11
35 28 11
35 29 17
35 30 14
35 31 2
35 32 12
35 33 15
35 34 7
36 1 3
36 2 11
36 3 17
36 4 15
36 5 7
36 7 6
36 8 15
36 12 10
36 14 20
36 15 7
36 16 13
36 17 6
36 19 17
36 20 11
36 22 15
36 24 13
36 26 10
36 27 17
36 28 13
36 29 18
36 31 11
36 32 6
36 34 14
36 35 10
37 0 16
37 1 3
37 3 4
37 4 7
37 5 11
37 6 5
37 7 2
37 10 10
37 12 10
37 13 4
37 14 5
37 15 4
37 16 12
37 17 9
37 18 8
37 19 4
37 20 11
37 22 16
37 23 16
37 28 2
37 29 5
37 30 3
37 31 18
37 32 3
37 33 1
37 36 12
38 1 14
38 3 2
38 4 5
38 6 9
38 7 4
38 9 11
38 10 6
38 11 9
38 12 17
38 13 12
38 14 20
38 15 6
38 16 12
38 19 6
38 23 2
38 24 11
38 26 18
38 27 6
38 28 2
38 30 10
38 31 14
38 33 5
38 35 2
38 36 3
38 37 15
39 0 4
39 2 14
39 3 15
39 5 3
39 6 2
39 7 11
39 8 13
39 9 7
39 10 9
39 12 17
39 13 13
39 15 16
39 16 9
39 18 2
39 19 16
39 20 11
39 21 9
39 22 14
39 23 7
39 24 12
39 27 14
39 28 1
39 31 15
39 32 2
39 33 19
39 35 18
39 37 16
39 38 5
